CPXPARAM_Read_DataCheck                          1
Found incumbent of value 0.000000 after 0.00 sec. (0.52 ticks)
Tried aggregator 1 time.
MIP Presolve modified 1 coefficients.
Reduced MIP has 2031 rows, 20010 columns, and 100040 nonzeros.
Reduced MIP has 20010 binaries, 0 generals, 0 SOSs, and 0 indicators.
Presolve time = 0.05 sec. (39.10 ticks)
Tried aggregator 1 time.
Reduced MIP has 2031 rows, 20010 columns, and 100040 nonzeros.
Reduced MIP has 20010 binaries, 0 generals, 0 SOSs, and 0 indicators.
Presolve time = 0.06 sec. (46.41 ticks)
Probing time = 0.02 sec. (5.60 ticks)
Clique table members: 40505.
MIP emphasis: balance optimality and feasibility.
MIP search method: dynamic search.
Parallel mode: deterministic, using up to 4 threads.
Root relaxation solution time = 0.25 sec. (310.15 ticks)

        Nodes                                         Cuts/
   Node  Left     Objective  IInf  Best Integer    Best Bound    ItCnt     Gap

*     0+    0                            0.0000   124372.0000              --- 
      0     0    29825.7216    12        0.0000    29825.7216     3798     --- 
*     0+    0                        23271.0000    29825.7216            28.17%
      0     0    27952.9256   853    23271.0000     Cuts: 607     5285   20.12%
*     0+    0                        25446.0000    27952.9256             9.85%
      0     0    27391.6949  1830    25446.0000     Cuts: 607     6399    6.79%
*     0+    0                        25839.0000    27174.3347             5.17%
      0     0        cutoff          25839.0000    25839.0000     8097    0.00%
Elapsed time = 7.75 sec. (5773.53 ticks, tree = 0.01 MB, solutions = 4)

Clique cuts applied:  1557
Cover cuts applied:  4
Mixed integer rounding cuts applied:  16

Root node processing (before b&c):
  Real time             =    7.75 sec. (5775.10 ticks)
Parallel b&c, 4 threads:
  Real time             =    0.00 sec. (0.00 ticks)
  Sync time (average)   =    0.00 sec.
  Wait time (average)   =    0.00 sec.
                          ------------
Total (root+branch&cut) =    7.75 sec. (5775.10 ticks)
